c Generated map
c Size: 8 * 8, weights in range: 1 to 10, walls: True, with ratio 0.05
c dim 2 of 10
c
p sp 64 101
c graph contains 64 nodes and 101 arcs
c
a 1 9 2
a 9 1 2
a 1 2 1
a 2 1 1
a 2 10 4
a 10 2 4
a 2 3 6
a 3 2 6
a 3 11 7
a 11 3 7
a 3 4 4
a 4 3 4
a 4 5 2
a 5 4 2
a 5 13 8
a 13 5 8
a 5 6 7
a 6 5 7
a 6 14 10
a 14 6 10
a 6 7 9
a 7 6 9
a 7 15 2
a 15 7 2
a 7 8 5
a 8 7 5
a 8 16 5
a 16 8 5
a 9 10 2
a 10 9 2
a 10 18 5
a 18 10 5
a 10 11 4
a 11 10 4
a 11 19 1
a 19 11 1
a 13 21 5
a 21 13 5
a 13 14 7
a 14 13 7
a 14 22 4
a 22 14 4
a 14 15 9
a 15 14 9
a 15 23 4
a 23 15 4
a 15 16 3
a 16 15 3
a 16 24 4
a 24 16 4
a 18 26 7
a 26 18 7
a 18 19 7
a 19 18 7
a 19 27 6
a 27 19 6
a 19 20 7
a 20 19 7
a 20 28 2
a 28 20 2
a 20 21 1
a 21 20 1
a 21 29 8
a 29 21 8
a 21 22 6
a 22 21 6
a 22 30 2
a 30 22 2
a 22 23 7
a 23 22 7
a 23 31 1
a 31 23 1
a 23 24 6
a 24 23 6
a 24 32 10
a 32 24 10
a 25 33 8
a 33 25 8
a 25 26 7
a 26 25 7
a 26 34 9
a 34 26 9
a 26 27 4
a 27 26 4
a 27 35 5
a 35 27 5
a 27 28 10
a 28 27 10
a 28 36 7
a 36 28 7
a 28 29 4
a 29 28 4
a 29 37 10
a 37 29 10
a 29 30 4
a 30 29 4
a 30 38 7
a 38 30 7
a 30 31 2
a 31 30 2
a 31 39 4
a 39 31 4
a 31 32 9
a 32 31 9
a 32 40 5
a 40 32 5
a 33 41 9
a 41 33 9
a 33 34 10
a 34 33 10
a 34 35 8
a 35 34 8
a 35 43 3
a 43 35 3
a 35 36 3
a 36 35 3
a 36 44 4
a 44 36 4
a 36 37 9
a 37 36 9
a 37 45 6
a 45 37 6
a 37 38 4
a 38 37 4
a 38 46 8
a 46 38 8
a 38 39 1
a 39 38 1
a 39 47 1
a 47 39 1
a 39 40 2
a 40 39 2
a 40 48 7
a 48 40 7
a 41 49 10
a 49 41 10
a 43 51 4
a 51 43 4
a 43 44 3
a 44 43 3
a 44 52 1
a 52 44 1
a 44 45 5
a 45 44 5
a 45 53 9
a 53 45 9
a 45 46 1
a 46 45 1
a 46 54 5
a 54 46 5
a 46 47 7
a 47 46 7
a 47 55 4
a 55 47 4
a 47 48 3
a 48 47 3
a 48 56 10
a 56 48 10
a 49 57 1
a 57 49 1
a 49 50 4
a 50 49 4
a 50 58 1
a 58 50 1
a 50 51 6
a 51 50 6
a 51 59 6
a 59 51 6
a 51 52 1
a 52 51 1
a 52 60 3
a 60 52 3
a 52 53 1
a 53 52 1
a 53 61 4
a 61 53 4
a 53 54 5
a 54 53 5
a 54 62 1
a 62 54 1
a 54 55 10
a 55 54 10
a 55 63 8
a 63 55 8
a 55 56 6
a 56 55 6
a 56 64 7
a 64 56 7
a 57 58 8
a 58 57 8
a 58 59 9
a 59 58 9
a 59 60 9
a 60 59 9
a 60 61 7
a 61 60 7
a 61 62 6
a 62 61 6
a 62 63 4
a 63 62 4
a 63 64 2
a 64 63 2
